
Gurobi 9.5.2 (mac64[arm]) logging started Fri Apr 28 12:58:55 2023

Set parameter LogFile to value "Java/output/pure_mip_2_machine/scenario_seed_2_nJob_20_machineCount_2/mip_increment_5/log.txt"
Gurobi Optimizer version 9.5.2 build v9.5.2rc0 (mac64[arm])
Thread count: 8 physical cores, 8 logical processors, using up to 8 threads
Optimize a model with 312 rows, 2088 columns and 8607 nonzeros
Model fingerprint: 0x36077d9a
Variable types: 0 continuous, 2088 integer (2088 binary)
Coefficient statistics:
  Matrix range     [1e+00, 1e+02]
  Objective range  [4e+00, 1e+06]
  Bounds range     [1e+00, 1e+00]
  RHS range        [1e+00, 1e+00]
Presolve removed 25 rows and 479 columns
Presolve time: 0.01s
Presolved: 287 rows, 1609 columns, 6654 nonzeros
Variable types: 0 continuous, 1609 integer (1609 binary)

Root relaxation: objective 1.842399e+05, 1185 iterations, 0.01 seconds (0.02 work units)

    Nodes    |    Current Node    |     Objective Bounds      |     Work
 Expl Unexpl |  Obj  Depth IntInf | Incumbent    BestBd   Gap | It/Node Time

     0     0 184239.900    0   67          - 184239.900      -     -    0s
H    0     0                    1558640.0000 184239.900  88.2%     -    0s
H    0     0                    556810.00000 184239.900  66.9%     -    0s
H    0     0                    545750.00000 184239.900  66.2%     -    0s
H    0     0                    344826.00000 184239.900  46.6%     -    0s
H    0     0                    343071.00000 185149.195  46.0%     -    0s
     0     0 185149.195    0  105 343071.000 185149.195  46.0%     -    0s
H    0     0                    275555.00000 185149.195  32.8%     -    0s
H    0     0                    273231.00000 185149.195  32.2%     -    0s
H    0     0                    272631.00000 185149.195  32.1%     -    0s
     0     0 186929.190    0  125 272631.000 186929.190  31.4%     -    0s
H    0     0                    232471.00000 186929.190  19.6%     -    0s
     0     0 187477.461    0  109 232471.000 187477.461  19.4%     -    0s
     0     0 187478.432    0  114 232471.000 187478.432  19.4%     -    0s
H    0     0                    199324.00000 187478.432  5.94%     -    0s
H    0     0                    199319.00000 187478.432  5.94%     -    0s
     0     0 190856.898    0  120 199319.000 190856.898  4.25%     -    0s
     0     0 190856.898    0   70 199319.000 190856.898  4.25%     -    0s
     0     0 190856.898    0   56 199319.000 190856.898  4.25%     -    0s
     0     0 191078.000    0   59 199319.000 191078.000  4.13%     -    0s
     0     0 191078.000    0   54 199319.000 191078.000  4.13%     -    0s
     0     0 191343.444    0   83 199319.000 191343.444  4.00%     -    0s
*    0     0               0    191736.00000 191736.000  0.00%     -    0s

Cutting planes:
  Gomory: 4
  Cover: 6
  Clique: 4
  MIR: 7
  StrongCG: 2
  GUB cover: 26
  Zero half: 5
  RLT: 6

Explored 1 nodes (3220 simplex iterations) in 0.21 seconds (0.20 work units)
Thread count was 8 (of 8 available processors)

Solution count 10: 191736 199319 199319 ... 343071

Optimal solution found (tolerance 1.00e-04)
Best objective 1.917360000000e+05, best bound 1.917360000000e+05, gap 0.0000%
